p wcnf 140 1500
6 -134 138 0
8 -133 140 0
4 -132 -133 0
9 -131 -134 0
7 -131 140 0
6 -126 -128 0
4 -125 -137 0
3 -125 133 0
6 -122 -129 0
1 -122 129 0
5 -121 -129 0
10 -121 140 0
8 -120 -140 0
6 -120 132 0
8 -119 -134 0
6 -119 120 0
7 -118 -126 0
3 -117 119 0
7 -116 -137 0
3 -115 129 0
9 -114 -129 0
7 -114 -128 0
8 -114 127 0
8 -112 -136 0
9 -112 -123 0
2 -111 -123 0
5 -111 -122 0
6 -110 -123 0
3 -110 -118 0
3 -110 119 0
5 -110 136 0
8 -109 -123 0
10 -109 129 0
9 -108 -127 0
7 -108 -113 0
7 -108 123 0
5 -107 -138 0
10 -106 -123 0
8 -106 118 0
9 -105 -123 0
1 -105 113 0
3 -105 128 0
9 -105 137 0
8 -104 -124 0
8 -104 106 0
7 -104 131 0
3 -104 135 0
4 -103 -106 0
9 -102 -125 0
9 -102 105 0
7 -101 -117 0
8 -101 -111 0
6 -100 -120 0
4 -100 -103 0
6 -99 -102 0
5 -99 -101 0
6 -98 -138 0
2 -97 126 0
2 -97 127 0
8 -97 128 0
4 -96 -109 0
6 -95 -129 0
6 -95 -103 0
3 -95 -101 0
5 -94 -129 0
3 -94 -127 0
9 -94 -112 0
8 -94 -106 0
2 -94 118 0
7 -94 135 0
8 -93 111 0
3 -93 125 0
9 -92 126 0
6 -91 -112 0
9 -91 93 0
7 -91 117 0
4 -91 130 0
3 -91 139 0
1 -90 -131 0
3 -89 -128 0
2 -89 -96 0
7 -89 117 0
1 -88 -125 0
7 -88 -110 0
2 -88 101 0
6 -88 137 0
2 -88 139 0
6 -87 -98 0
7 -87 91 0
3 -87 114 0
4 -87 134 0
10 -86 -138 0
8 -86 -137 0
9 -86 -111 0
3 -86 -95 0
3 -86 -88 0
2 -85 -136 0
2 -85 -107 0
2 -85 94 0
3 -85 105 0
8 -85 106 0
8 -85 107 0
5 -84 -129 0
7 -84 -115 0
5 -84 -89 0
4 -83 -140 0
4 -83 98 0
7 -83 136 0
5 -82 -112 0
4 -82 -110 0
9 -82 -109 0
6 -82 87 0
2 -82 104 0
9 -82 111 0
3 -81 -137 0
2 -81 -104 0
6 -81 -88 0
5 -81 84 0
7 -81 109 0
3 -81 113 0
7 -81 137 0
2 -80 -135 0
2 -80 -128 0
6 -80 -126 0
9 -80 -89 0
4 -80 81 0
8 -80 106 0
10 -79 -115 0
5 -79 -96 0
9 -79 122 0
3 -79 129 0
3 -78 83 0
7 -78 86 0
6 -77 -133 0
9 -77 -118 0
2 -77 -96 0
9 -77 96 0
3 -77 106 0
8 -77 107 0
5 -76 -99 0
6 -76 -98 0
7 -76 99 0
10 -76 109 0
6 -76 115 0
7 -75 -79 0
3 -75 -76 0
8 -75 76 0
2 -75 119 0
7 -75 130 0
5 -74 -130 0
4 -74 -100 0
4 -74 84 0
6 -74 87 0
5 -74 95 0
9 -74 119 0
5 -74 135 0
8 -73 -129 0
6 -73 86 0
5 -73 110 0
3 -72 -100 0
5 -72 -79 0
7 -72 73 0
4 -72 74 0
2 -72 94 0
3 -72 113 0
3 -71 -133 0
3 -71 -126 0
2 -71 -113 0
4 -71 105 0
1 -71 106 0
6 -70 -139 0
9 -70 -130 0
8 -70 -90 0
6 -70 114 0
6 -70 136 0
5 -70 137 0
8 -69 -115 0
3 -69 -87 0
6 -69 -80 0
5 -69 102 0
7 -69 112 0
9 -69 118 0
8 -68 -114 0
3 -68 -86 0
4 -68 95 0
7 -68 123 0
7 -68 128 0
2 -68 132 0
3 -68 136 0
2 -67 -91 0
4 -67 -80 0
7 -67 68 0
7 -67 71 0
7 -67 81 0
9 -67 107 0
9 -67 118 0
9 -66 -133 0
2 -66 -130 0
1 -66 -85 0
4 -66 -82 0
2 -66 93 0
6 -66 109 0
3 -66 128 0
9 -66 134 0
2 -65 -137 0
8 -65 -104 0
4 -65 -89 0
9 -65 121 0
10 -64 -137 0
9 -64 -131 0
3 -64 -114 0
7 -64 -90 0
8 -64 -89 0
1 -64 -83 0
9 -64 94 0
3 -64 107 0
7 -64 117 0
5 -64 131 0
4 -63 -128 0
9 -63 -121 0
6 -63 -120 0
7 -63 -66 0
6 -63 113 0
3 -63 133 0
5 -63 138 0
5 -62 -101 0
2 -62 -85 0
4 -62 -72 0
5 -62 98 0
3 -61 -105 0
7 -61 -62 0
6 -61 120 0
8 -61 133 0
9 -60 -133 0
6 -60 -117 0
9 -60 -98 0
6 -60 -96 0
8 -60 -92 0
7 -60 -73 0
6 -60 87 0
7 -60 99 0
10 -60 114 0
3 -60 119 0
6 -60 131 0
10 -60 133 0
2 -59 -119 0
7 -59 -102 0
7 -59 78 0
7 -59 87 0
1 -59 105 0
6 -58 -83 0
3 -58 94 0
8 -58 95 0
2 -58 128 0
5 -57 -126 0
2 -57 -125 0
5 -57 -106 0
6 -57 81 0
6 -57 97 0
10 -57 126 0
8 -56 -134 0
2 -56 -111 0
6 -56 -71 0
5 -56 100 0
1 -55 -135 0
2 -55 -132 0
4 -55 -120 0
7 -55 -110 0
9 -55 -88 0
1 -55 60 0
3 -55 82 0
7 -55 83 0
10 -55 121 0
5 -55 122 0
2 -55 140 0
9 -54 -120 0
6 -54 -113 0
9 -54 -86 0
6 -54 -77 0
3 -54 68 0
9 -54 118 0
2 -54 131 0
4 -54 132 0
7 -53 -93 0
2 -53 -88 0
8 -53 -72 0
8 -53 -60 0
7 -53 -54 0
4 -53 61 0
4 -53 75 0
6 -53 121 0
2 -52 -115 0
5 -52 87 0
2 -52 128 0
6 -51 -100 0
6 -51 77 0
3 -51 87 0
9 -51 108 0
2 -51 118 0
2 -51 119 0
9 -50 -71 0
4 -50 -70 0
8 -50 -64 0
9 -50 -57 0
9 -50 64 0
9 -50 105 0
8 -50 116 0
5 -49 -138 0
8 -49 -129 0
4 -49 -115 0
7 -49 -104 0
7 -49 -99 0
5 -49 -84 0
1 -49 -82 0
4 -49 -70 0
6 -49 -61 0
8 -49 50 0
3 -49 94 0
3 -49 112 0
2 -49 140 0
5 -48 87 0
9 -48 105 0
3 -48 118 0
10 -48 119 0
1 -47 -117 0
8 -47 -101 0
5 -47 -91 0
3 -47 -81 0
7 -47 -71 0
7 -47 63 0
5 -47 75 0
6 -47 125 0
10 -46 -138 0
3 -46 -50 0
4 -46 50 0
8 -46 71 0
2 -46 86 0
2 -46 117 0
3 -46 121 0
9 -45 -70 0
5 -45 46 0
9 -45 49 0
6 -45 103 0
9 -44 -107 0
9 -44 -98 0
9 -44 -56 0
6 -44 -46 0
7 -44 45 0
2 -44 66 0
8 -44 69 0
8 -44 71 0
6 -44 96 0
7 -43 -133 0
1 -43 -132 0
6 -43 -103 0
7 -43 -102 0
8 -43 -91 0
2 -43 -46 0
9 -43 44 0
5 -43 45 0
7 -43 54 0
4 -42 -98 0
10 -42 -74 0
7 -42 -52 0
6 -42 -45 0
4 -42 94 0
5 -42 119 0
6 -42 124 0
5 -41 -121 0
7 -41 -106 0
5 -41 -99 0
10 -41 -57 0
6 -41 99 0
1 -40 -140 0
9 -40 -133 0
5 -40 -116 0
10 -40 -107 0
5 -40 -74 0
3 -40 -70 0
2 -40 -47 0
3 -40 45 0
10 -40 55 0
7 -40 70 0
9 -40 91 0
10 -40 97 0
3 -39 -138 0
6 -39 -121 0
8 -39 -116 0
4 -39 -109 0
5 -39 -98 0
3 -39 -56 0
1 -39 -46 0
8 -39 40 0
2 -39 67 0
7 -39 81 0
4 -39 94 0
5 -38 -123 0
2 -38 -90 0
9 -38 -51 0
9 -38 -46 0
9 -38 -39 0
4 -38 49 0
9 -38 58 0
5 -38 73 0
5 -37 -136 0
8 -37 -123 0
10 -37 -117 0
4 -37 -112 0
3 -37 -106 0
2 -37 -100 0
5 -37 -85 0
5 -37 48 0
2 -37 95 0
2 -37 113 0
4 -37 121 0
2 -37 138 0
5 -36 -75 0
8 -36 -64 0
9 -36 -51 0
8 -36 50 0
4 -36 72 0
2 -36 82 0
8 -36 94 0
2 -36 114 0
3 -36 124 0
5 -35 -119 0
4 -35 -50 0
7 -35 -48 0
6 -35 36 0
3 -35 44 0
6 -35 103 0
5 -34 -70 0
7 -34 -52 0
5 -34 40 0
9 -34 52 0
1 -34 79 0
2 -34 82 0
9 -34 91 0
5 -34 95 0
4 -34 123 0
1 -33 -134 0
9 -33 -112 0
8 -33 -83 0
2 -33 -52 0
1 -33 36 0
1 -33 115 0
3 -32 -124 0
5 -32 -69 0
9 -32 -37 0
2 -32 56 0
3 -32 59 0
2 -32 84 0
2 -32 117 0
1 -31 -133 0
3 -31 -88 0
4 -31 -79 0
5 -31 -65 0
7 -31 -61 0
10 -31 -57 0
2 -31 38 0
9 -31 41 0
6 -31 42 0
6 -31 56 0
5 -31 68 0
9 -31 97 0
5 -31 130 0
6 -31 131 0
2 -31 136 0
4 -30 -135 0
9 -30 -132 0
5 -30 -126 0
4 -30 -94 0
8 -30 -92 0
3 -30 -87 0
5 -30 -78 0
8 -30 -37 0
3 -30 33 0
7 -30 122 0
4 -30 134 0
2 -29 -103 0
8 -29 -33 0
6 -29 98 0
3 -29 139 0
9 -28 -133 0
6 -28 -131 0
6 -28 -114 0
4 -28 -97 0
1 -28 -96 0
2 -28 -88 0
3 -28 -83 0
2 -28 59 0
1 -28 92 0
8 -27 -128 0
7 -27 -101 0
5 -27 -96 0
7 -27 -61 0
2 -27 -48 0
1 -27 -47 0
8 -27 -32 0
5 -27 65 0
10 -27 72 0
3 -27 76 0
8 -27 95 0
8 -27 115 0
5 -26 -113 0
3 -26 -44 0
6 -26 -32 0
7 -26 39 0
9 -26 136 0
9 -25 -123 0
8 -25 -98 0
7 -25 -94 0
5 -25 -81 0
1 -25 76 0
7 -24 -128 0
10 -24 -42 0
6 -24 39 0
9 -24 56 0
10 -24 68 0
7 -24 69 0
3 -24 119 0
2 -24 123 0
7 -24 140 0
10 -23 -73 0
7 -23 -52 0
3 -23 77 0
7 -23 101 0
8 -23 102 0
3 -23 126 0
5 -22 -102 0
3 -22 -72 0
3 -22 -45 0
8 -22 36 0
10 -22 62 0
9 -21 -76 0
2 -21 -40 0
3 -21 79 0
6 -21 114 0
8 -21 127 0
3 -20 -108 0
5 -20 -103 0
7 -20 -97 0
9 -20 49 0
8 -20 58 0
7 -20 65 0
6 -20 77 0
8 -20 89 0
3 -20 134 0
5 -20 138 0
8 -19 -33 0
9 -19 47 0
7 -19 119 0
8 -18 -134 0
7 -18 -88 0
7 -18 -82 0
6 -18 -78 0
8 -18 -70 0
4 -18 -49 0
4 -18 -34 0
1 -18 20 0
8 -18 22 0
6 -18 119 0
3 -17 -109 0
6 -17 -76 0
5 -17 -65 0
2 -17 -46 0
7 -17 33 0
8 -17 59 0
7 -17 80 0
6 -17 99 0
9 -17 135 0
1 -17 137 0
3 -17 138 0
8 -16 -125 0
9 -16 -74 0
9 -16 -52 0
4 -16 -18 0
7 -16 -17 0
2 -16 18 0
8 -16 26 0
5 -16 39 0
1 -15 -109 0
6 -15 -87 0
3 -15 -69 0
7 -15 -68 0
2 -15 -60 0
8 -15 -36 0
5 -15 33 0
5 -15 88 0
1 -15 95 0
5 -15 131 0
4 -14 -93 0
6 -14 -91 0
7 -14 -84 0
9 -14 -71 0
2 -14 -40 0
8 -14 -33 0
7 -14 63 0
8 -14 122 0
5 -14 133 0
3 -13 -104 0
7 -13 -53 0
5 -13 84 0
4 -13 136 0
5 -13 140 0
4 -12 -116 0
3 -12 -73 0
9 -12 -61 0
9 -12 -42 0
3 -12 -34 0
7 -12 -22 0
4 -12 -19 0
3 -12 23 0
3 -12 128 0
6 -12 138 0
9 -11 -88 0
4 -11 12 0
4 -11 35 0
4 -11 71 0
9 -11 80 0
4 -11 85 0
8 -11 106 0
2 -10 -132 0
10 -10 -130 0
5 -10 -111 0
2 -10 -90 0
1 -10 -84 0
3 -10 -77 0
7 -10 -69 0
8 -10 -48 0
6 -10 -47 0
9 -10 -46 0
6 -10 -44 0
1 -10 86 0
3 -9 -130 0
1 -9 -82 0
4 -9 -65 0
4 -9 -49 0
9 -9 -30 0
3 -9 13 0
7 -9 16 0
6 -9 102 0
6 -9 126 0
9 -9 131 0
7 -9 136 0
2 -8 -121 0
8 -8 -54 0
1 -8 -31 0
5 -8 31 0
2 -8 49 0
9 -8 127 0
9 -8 138 0
9 -7 -48 0
1 -7 -43 0
8 -7 -41 0
3 -7 12 0
2 -7 62 0
8 -7 100 0
5 -6 -118 0
8 -6 -103 0
7 -6 -95 0
1 -6 -38 0
6 -6 -34 0
2 -6 28 0
1 -6 78 0
8 -6 81 0
2 -6 84 0
4 -6 99 0
2 -6 105 0
10 -5 -98 0
6 -5 -71 0
8 -5 -64 0
5 -5 -41 0
2 -5 -25 0
7 -5 8 0
3 -5 11 0
3 -5 12 0
4 -5 36 0
3 -5 47 0
8 -5 56 0
5 -5 75 0
2 -4 -130 0
6 -4 -124 0
4 -4 -81 0
2 -4 38 0
5 -4 49 0
6 -4 85 0
3 -4 112 0
3 -4 119 0
1 -3 -52 0
10 -3 9 0
9 -3 41 0
1 -3 44 0
6 -3 77 0
10 -3 84 0
2 -3 104 0
4 -3 106 0
2 -3 111 0
5 -3 122 0
6 -3 130 0
2 -2 -97 0
10 -2 -64 0
3 -2 -48 0
6 -2 -32 0
2 -2 -11 0
9 -2 -8 0
8 -2 12 0
4 -2 49 0
3 -2 84 0
10 -2 100 0
2 -2 117 0
7 -2 138 0
1 -1 -113 0
7 -1 -101 0
1 -1 -96 0
3 -1 -70 0
2 -1 -32 0
6 -1 -5 0
5 -1 8 0
4 -1 28 0
7 -1 84 0
4 -1 132 0
3 1 -92 0
7 1 -27 0
10 1 -9 0
3 1 16 0
8 1 17 0
4 1 70 0
3 1 85 0
2 1 123 0
9 1 124 0
4 2 -117 0
2 2 -116 0
2 2 -71 0
9 2 -54 0
3 2 -34 0
1 2 -29 0
7 2 3 0
6 2 15 0
3 2 47 0
6 2 56 0
7 2 126 0
10 2 135 0
7 3 -138 0
4 3 -126 0
1 3 -90 0
8 3 -80 0
5 3 -61 0
6 3 -34 0
3 3 -15 0
8 3 -11 0
3 3 -4 0
6 3 7 0
10 3 64 0
9 3 100 0
6 3 110 0
2 4 -97 0
7 4 -62 0
9 4 26 0
4 4 35 0
8 4 74 0
8 4 84 0
7 4 88 0
10 4 106 0
9 4 111 0
6 4 115 0
2 5 -119 0
9 5 -57 0
3 5 -47 0
7 5 -34 0
2 5 -19 0
8 5 21 0
4 5 84 0
2 6 -130 0
5 6 -89 0
7 6 -75 0
2 6 -64 0
3 6 42 0
2 6 52 0
8 6 92 0
5 7 -121 0
9 7 -26 0
10 7 47 0
1 7 57 0
8 7 64 0
9 7 112 0
6 8 -137 0
9 8 -99 0
6 8 83 0
6 8 119 0
4 9 -136 0
5 9 -125 0
4 9 -99 0
1 9 -33 0
4 9 52 0
3 9 72 0
7 9 114 0
6 10 -62 0
2 10 -57 0
9 10 -42 0
3 10 17 0
3 10 93 0
7 10 113 0
6 10 129 0
4 10 134 0
2 11 -121 0
3 11 -82 0
6 11 -79 0
4 11 -72 0
4 11 -61 0
3 11 -60 0
8 11 -41 0
3 11 -29 0
3 11 19 0
9 11 49 0
10 11 67 0
3 11 102 0
5 11 119 0
9 12 -98 0
8 12 -81 0
10 12 -78 0
3 12 -26 0
2 12 -21 0
3 12 39 0
3 12 56 0
6 12 62 0
5 12 81 0
9 13 -100 0
1 13 -59 0
5 13 16 0
8 13 23 0
3 13 72 0
7 13 97 0
5 13 122 0
8 13 135 0
2 14 -124 0
6 14 -100 0
1 14 -99 0
6 14 -40 0
9 14 37 0
4 14 41 0
9 14 75 0
7 14 78 0
6 14 98 0
2 14 113 0
5 14 116 0
6 15 -140 0
4 15 -118 0
9 15 -103 0
5 15 -87 0
1 15 -76 0
9 15 -66 0
6 15 -51 0
3 15 -49 0
2 15 -39 0
8 15 -24 0
7 15 44 0
6 15 83 0
7 15 103 0
7 15 111 0
10 15 114 0
5 15 124 0
10 16 -80 0
7 16 -37 0
8 16 37 0
8 16 38 0
8 16 45 0
4 16 69 0
8 16 77 0
4 16 91 0
3 16 97 0
3 17 -125 0
3 17 -105 0
8 17 -100 0
8 17 -52 0
4 17 -49 0
4 17 -28 0
3 17 61 0
6 17 90 0
3 18 -99 0
7 18 -91 0
7 18 -86 0
2 18 -85 0
3 18 -67 0
8 18 -55 0
3 18 33 0
2 18 49 0
5 18 98 0
8 19 -139 0
8 19 -109 0
3 19 -103 0
8 19 -39 0
3 19 -29 0
2 19 -24 0
5 19 24 0
10 19 73 0
9 19 110 0
3 19 114 0
4 20 -75 0
7 20 -73 0
6 20 21 0
5 20 23 0
9 20 72 0
7 20 77 0
4 20 100 0
7 20 103 0
1 20 105 0
7 20 123 0
9 20 137 0
7 21 -123 0
9 21 -110 0
5 21 -80 0
3 21 -46 0
1 21 95 0
7 21 101 0
2 21 112 0
4 21 121 0
8 21 124 0
6 21 131 0
2 22 -138 0
6 22 -24 0
8 22 65 0
8 22 67 0
7 22 69 0
9 23 -111 0
3 23 -27 0
7 23 34 0
8 23 84 0
5 23 115 0
10 23 116 0
5 24 -136 0
10 24 -123 0
5 24 -83 0
5 24 -76 0
7 24 -71 0
8 24 -63 0
1 24 -62 0
7 24 -26 0
4 24 29 0
9 24 57 0
4 24 72 0
3 25 -135 0
4 25 -114 0
6 25 -97 0
4 25 -80 0
2 25 -57 0
7 25 -42 0
6 25 41 0
9 25 49 0
3 25 60 0
7 25 75 0
4 25 98 0
10 25 108 0
5 26 -134 0
1 26 -131 0
9 26 -124 0
8 26 -123 0
7 26 -121 0
7 26 -57 0
2 26 40 0
7 26 129 0
2 26 133 0
2 27 -138 0
2 27 -123 0
6 27 -94 0
8 27 -66 0
9 27 -60 0
6 27 -48 0
5 27 -42 0
3 27 43 0
5 27 75 0
8 27 90 0
6 27 121 0
8 27 127 0
4 27 128 0
8 28 -126 0
9 28 -78 0
1 28 -70 0
5 28 -69 0
7 28 -65 0
3 28 -62 0
2 28 -38 0
2 28 -33 0
3 28 53 0
6 28 97 0
2 28 121 0
2 28 128 0
3 29 -43 0
8 29 -32 0
7 29 55 0
5 29 82 0
6 29 94 0
8 29 113 0
6 30 -130 0
7 30 -129 0
4 30 -107 0
4 30 -68 0
5 30 -45 0
9 30 49 0
8 30 56 0
8 30 85 0
3 30 99 0
6 30 112 0
3 30 134 0
2 30 136 0
9 31 -139 0
1 31 -129 0
9 31 -90 0
10 31 -69 0
5 31 -36 0
6 31 -34 0
3 31 -32 0
6 31 107 0
7 31 123 0
5 31 138 0
2 32 -98 0
8 32 -52 0
5 32 40 0
4 32 78 0
6 32 100 0
2 32 101 0
8 32 121 0
2 32 122 0
10 33 -104 0
4 33 -100 0
7 33 -98 0
4 33 83 0
6 33 101 0
3 33 126 0
2 33 135 0
4 34 -129 0
9 34 -116 0
5 34 -97 0
10 34 -95 0
2 34 -85 0
5 34 -66 0
9 34 -63 0
3 34 -36 0
4 34 54 0
9 34 77 0
7 34 81 0
10 34 82 0
2 34 96 0
2 34 129 0
7 34 138 0
6 35 -77 0
3 35 -59 0
5 35 -55 0
1 35 -51 0
6 35 42 0
10 35 47 0
2 35 98 0
3 35 129 0
2 35 140 0
2 36 -103 0
6 36 -64 0
8 36 -63 0
5 36 -44 0
2 36 -42 0
1 36 87 0
6 36 93 0
6 36 104 0
9 36 111 0
10 36 123 0
6 36 139 0
2 37 -129 0
5 37 -106 0
5 37 -92 0
4 37 -43 0
8 37 41 0
4 37 46 0
9 37 75 0
8 37 79 0
4 37 128 0
2 37 131 0
5 38 -82 0
9 38 -76 0
3 38 -53 0
9 38 -39 0
9 38 42 0
8 38 46 0
9 38 59 0
1 38 78 0
2 38 83 0
9 38 89 0
3 38 106 0
7 38 139 0
8 39 -104 0
6 39 -103 0
8 39 -80 0
8 39 -73 0
2 39 -63 0
4 39 95 0
7 39 112 0
2 40 -108 0
9 40 -86 0
8 40 -75 0
6 40 -60 0
3 40 56 0
2 40 76 0
5 40 98 0
6 40 102 0
10 40 108 0
3 40 120 0
9 40 121 0
1 41 -105 0
7 41 -104 0
8 41 -85 0
4 41 94 0
6 41 109 0
7 41 127 0
2 42 -101 0
5 42 -44 0
8 42 107 0
3 42 110 0
4 42 139 0
9 43 -117 0
8 43 -81 0
2 43 -58 0
5 43 -45 0
6 43 80 0
8 43 88 0
7 43 132 0
9 44 -139 0
6 44 -137 0
8 44 -64 0
8 44 50 0
4 44 54 0
4 44 84 0
10 44 125 0
4 44 139 0
8 45 -126 0
6 45 -93 0
4 45 -86 0
9 45 -85 0
5 45 60 0
5 45 110 0
6 45 132 0
3 46 -120 0
8 46 -108 0
2 46 -106 0
9 46 -100 0
9 46 -88 0
6 46 53 0
6 46 104 0
1 46 113 0
9 46 120 0
5 46 128 0
8 46 131 0
9 47 -115 0
10 47 -59 0
5 47 -50 0
8 47 -48 0
7 47 84 0
4 47 88 0
3 47 103 0
5 47 121 0
1 47 132 0
6 47 139 0
8 48 -122 0
1 48 -98 0
10 48 -70 0
5 48 -68 0
6 48 52 0
4 48 54 0
5 48 58 0
10 48 79 0
7 48 93 0
1 48 99 0
2 48 109 0
5 49 -120 0
2 49 -69 0
1 49 75 0
3 49 80 0
7 49 102 0
6 49 109 0
4 49 120 0
6 50 -96 0
2 50 -77 0
2 50 -73 0
5 50 -68 0
2 50 -62 0
5 50 -57 0
3 50 -54 0
8 50 -53 0
8 50 56 0
5 50 91 0
2 50 114 0
9 50 134 0
1 51 -103 0
9 51 -92 0
9 51 -90 0
1 51 138 0
4 52 -112 0
5 52 -91 0
4 52 -65 0
8 52 57 0
5 52 61 0
1 52 77 0
8 52 85 0
6 52 88 0
5 52 106 0
9 52 126 0
7 53 -105 0
8 53 -56 0
6 53 56 0
3 53 91 0
1 53 132 0
2 54 -116 0
4 54 -103 0
2 54 -96 0
6 54 -91 0
5 54 -87 0
7 54 -78 0
7 54 -67 0
2 54 66 0
5 54 101 0
3 54 121 0
4 55 -127 0
4 55 -82 0
3 55 -81 0
2 55 70 0
3 55 74 0
3 55 87 0
6 56 -74 0
7 56 -73 0
6 56 65 0
3 56 81 0
2 56 93 0
6 57 -130 0
1 57 -118 0
8 57 -116 0
2 57 -80 0
9 57 62 0
4 57 92 0
8 57 108 0
5 57 134 0
6 58 -137 0
9 58 -132 0
6 58 -83 0
9 58 67 0
1 58 129 0
2 59 -79 0
4 59 -66 0
7 59 -64 0
8 59 69 0
5 59 86 0
2 59 108 0
10 59 110 0
8 60 -140 0
5 60 -136 0
3 60 -123 0
9 60 86 0
7 60 94 0
5 60 120 0
5 60 127 0
4 61 -125 0
10 61 -105 0
7 61 80 0
5 61 118 0
6 62 -99 0
8 62 -86 0
3 62 124 0
7 63 -91 0
7 63 71 0
6 63 91 0
5 63 121 0
2 63 131 0
2 63 138 0
4 64 -113 0
7 64 -106 0
2 64 82 0
4 64 124 0
8 64 135 0
5 65 -123 0
1 65 -105 0
6 65 -82 0
9 65 -72 0
2 65 100 0
5 66 -136 0
7 66 -130 0
6 66 -128 0
7 66 -106 0
7 66 -70 0
3 66 -67 0
2 66 70 0
2 66 120 0
6 66 127 0
2 67 -99 0
8 67 -94 0
1 67 -89 0
7 67 -80 0
6 67 73 0
3 67 139 0
4 68 -119 0
3 68 85 0
8 68 91 0
9 69 -136 0
4 69 -132 0
10 69 -122 0
3 69 -96 0
10 69 -92 0
1 69 -90 0
6 69 -75 0
8 69 75 0
5 69 86 0
6 69 95 0
3 70 -131 0
5 70 -86 0
7 70 135 0
8 70 139 0
2 71 -130 0
3 71 -111 0
5 71 -96 0
8 71 72 0
5 71 101 0
6 71 115 0
9 71 117 0
9 72 -121 0
7 72 -106 0
7 72 -102 0
9 72 -74 0
4 72 110 0
3 72 117 0
2 72 119 0
8 72 126 0
4 72 131 0
10 73 -124 0
6 73 -95 0
7 73 -76 0
9 73 74 0
8 73 90 0
7 73 102 0
10 74 -129 0
4 74 90 0
5 74 116 0
5 74 140 0
9 75 -137 0
7 75 -116 0
8 75 -99 0
7 75 -86 0
5 75 -81 0
9 75 82 0
8 75 104 0
8 75 121 0
7 76 -96 0
3 76 95 0
4 76 131 0
5 77 -115 0
2 77 86 0
1 78 -133 0
2 78 -80 0
2 78 80 0
5 78 95 0
4 78 96 0
3 78 100 0
2 78 101 0
7 78 127 0
3 78 132 0
8 78 139 0
4 78 140 0
2 79 -113 0
6 79 -98 0
1 79 -90 0
1 79 100 0
9 79 106 0
5 79 113 0
5 79 134 0
9 80 -131 0
2 80 -89 0
3 80 89 0
5 80 108 0
5 80 119 0
2 80 124 0
4 80 138 0
4 81 -138 0
8 81 93 0
6 81 117 0
7 81 136 0
3 82 -136 0
7 82 -96 0
7 82 84 0
4 82 98 0
8 83 -106 0
2 83 96 0
7 83 99 0
10 83 116 0
3 83 125 0
4 84 114 0
2 84 137 0
10 85 -126 0
7 85 -122 0
3 85 -116 0
6 85 -94 0
8 85 98 0
3 85 106 0
5 85 118 0
3 86 -126 0
7 86 -116 0
4 86 115 0
3 87 -130 0
9 87 -121 0
9 87 -102 0
8 87 90 0
1 87 93 0
3 87 110 0
2 87 128 0
8 88 -127 0
8 88 -117 0
8 88 -96 0
2 88 105 0
5 88 113 0
5 89 -138 0
5 89 98 0
2 89 118 0
6 89 127 0
2 90 -110 0
2 90 -100 0
8 90 97 0
5 91 115 0
3 92 -100 0
8 92 103 0
2 94 -116 0
4 94 97 0
4 94 106 0
9 94 107 0
6 94 114 0
8 94 118 0
2 95 -130 0
3 95 -123 0
2 95 104 0
4 95 134 0
2 96 -139 0
1 96 -133 0
2 96 -116 0
2 96 133 0
3 97 -139 0
3 97 -119 0
10 97 -102 0
10 97 121 0
9 98 -129 0
1 98 -115 0
4 98 116 0
4 98 131 0
5 99 -109 0
5 100 -133 0
9 100 109 0
6 100 126 0
6 100 131 0
7 101 -128 0
1 101 -119 0
8 102 -114 0
5 102 132 0
3 103 126 0
2 104 -121 0
7 104 117 0
2 105 111 0
8 106 -126 0
5 107 -140 0
2 107 -139 0
10 107 -118 0
7 107 -110 0
5 108 -140 0
2 108 -122 0
7 108 133 0
6 109 -127 0
3 109 -121 0
9 109 -117 0
7 110 117 0
3 110 128 0
9 111 -139 0
7 111 135 0
3 112 115 0
3 112 125 0
1 113 -131 0
7 113 135 0
7 115 117 0
9 115 125 0
3 115 127 0
3 116 -119 0
6 117 130 0
3 117 131 0
1 119 -138 0
1 119 -132 0
5 119 -124 0
2 119 131 0
7 120 136 0
5 122 -125 0
9 123 -135 0
3 123 -129 0
6 123 125 0
9 124 -138 0
8 124 137 0
1 126 136 0
9 128 138 0
5 129 132 0
6 131 -137 0
3 131 -133 0
5 133 -137 0
3 134 139 0
